
! RIJCOSX CAM-B3LYP def2-TZVP def2/J D3BJ TightSCF CPCM(WATER) LARGEPRINT
%MAXCORE 150000
%SCF
 MAXITER 5000
 END
%TDDFT
 NROOTS 300
 MAXDIM 30
 END
%PAL
 NPROCS 5
 END


* xyz 0 1
   H   10.38731517309556      0.04067114031225    -24.79886772958330
   N   10.51257083293333     -0.46201069798859    -23.93389259949972
   C   11.08619546053167     -1.69738212830812    -23.78362396341841
   H   11.47063347908909     -2.24701277927376    -24.62787846109001
   N   11.10209689858565     -2.09150168738839    -22.54509954615625
   C   10.50470263800588     -1.06317714998661    -21.84136333537585
   C   10.20598926593719     -0.93484415315855    -20.45728704441799
   O   10.41683337514883     -1.73890915331944    -19.55586691352262
   N   9.58084692650062      0.28425964886360    -20.18563411469273
   H   9.31381308895043      0.44295579347633    -19.22585276304362
   C   9.27581402703432      1.25085548308248    -21.10801488727491
   N   8.67565718975036      2.35019491732873    -20.64644205578924
   H   8.58551917531127      2.56007416766896    -19.65591550183058
   H   8.47528718416478      3.07560188264833    -21.31323092199183
   N   9.53817044320401      1.12176702221905    -22.39064849816003
   C   10.13606106037886     -0.04167764556000    -22.69702839734652
   H   6.90735163979262     -0.52460068002313    -25.06691139388314
   N   6.67852604346045     -0.39328153783287    -24.09328684116480
   C   6.04639996755896      0.68993170040603    -23.54779686049361
   H   5.72379211491582      1.52256369507255    -24.15180452019024
   N   5.89697684022412      0.57893554405436    -22.26044276748644
   C   6.46258361685707     -0.63859069446000    -21.94079406728853
   C   6.62245597963825     -1.29002441898120    -20.69161520486983
   O   6.27144234068438     -0.91828175436491    -19.57571695507993
   N   7.28457720694385     -2.50794395807558    -20.83905018701318
   H   7.43806397037111     -3.02056801648104    -19.98033947970149
   C   7.72766980075516     -3.04187740503759    -22.01756544004148
   N   8.31246983609775     -4.24994107011614    -21.95543075535065
   H   8.63217250267151     -4.61585303269202    -21.07406845017531
   H   8.79396597160607     -4.56375356551083    -22.78166121893377
   N   7.57534252052333     -2.44101877851958    -23.17144705508536
   C   6.95301315824458     -1.25403913282102    -23.07734352168983
   H   4.44713900684300      6.10684915630074    -16.77233478105442
   N   4.67235545006209      5.16514648395894    -16.49012928451023
   C   4.83770304871437      4.72025472789180    -15.20674664270264
   H   4.73130781220863      5.37740761571679    -14.35884084114180
   N   5.12753308011669      3.45302976972338    -15.15768731920613
   C   5.15758465660376      3.04232665424982    -16.47500253779563
   C   5.43653408092191      1.77531607512595    -17.04821629528229
   O   5.71865635593679      0.72319768931319    -16.47817717419981
   N   5.35967461624767      1.81641728759991    -18.43549733623032
   H   5.56365368854701      0.94418001829085    -18.91218747629255
   C   5.06866866706413      2.92315848852841    -19.18797675824143
   N   5.04726515083026      2.75394637605865    -20.51100150695126
   H   5.26127958809516      1.87706012304773    -20.95129274826572
   H   4.86244873653246      3.55729549881316    -21.08630691221898
   N   4.81611414658772      4.10056975716535    -18.65702207310971
   C   4.87410233470138      4.10196657869269    -17.31569790109866
   H   7.95929048755915      5.66851204137798    -15.88509289829677
   N   8.18749412493018      4.79280404656493    -16.33079999418845
   C   8.13088857159030      4.52751407564174    -17.67043947687270
   H   7.82932230898769      5.27423688711236    -18.38669083353789
   N   8.47195134505884      3.30210737806238    -17.94501796571962
   C   8.76825443651063      2.73148706825156    -16.72388366291951
   C   9.20102595882096      1.42330549039610    -16.38902401626896
   O   9.41094438842257      0.46687948495210    -17.12823669634372
   N   9.39610697044641      1.29220235383116    -15.01449393029324
   H   9.71311277940792      0.37985991750371    -14.71323123688199
   C   9.19142221506213      2.26977050214794    -14.07979480082387
   N   9.45163847017314      1.95662435593428    -12.80242266025895
   H   9.63831450141057      1.01025274649354    -12.51778711415906
   H   9.20165043628549      2.62475453761211    -12.09366478957190
   N   8.77970503283524      3.47497131825422    -14.39039312957910
   C   8.59263934957707      3.65268837743846    -15.70934050140276
   H   7.58579747066771     -1.15280565763687     -9.16378291931051
   N   7.70485908163774     -1.44386353322033    -10.12187770911127
   C   8.34784472966618     -2.57312501281100    -10.55603038306208
   H   8.79362411563469     -3.26903625536425     -9.86335135547946
   N   8.34536658040613     -2.68129658201749    -11.85163378529348
   C   7.66440038111647     -1.56434519874380    -12.29537066030479
   C   7.34347303496357     -1.13252575221925    -13.61110900238856
   O   7.61857200075607     -1.66674434971735    -14.67992399766334
   N   6.63520342073048      0.07061472656950    -13.58956544608441
   H   6.34658161240991      0.42707343349988    -14.49625392027497
   C   6.29449213916569      0.77992097495679    -12.46989424063811
   N   5.62704598572520      1.92141428927556    -12.66553135082393
   H   5.50689525837513      2.33035434737700    -13.58134969929491
   H   5.43332544716684      2.48662597366371    -11.85672637245833
   N   6.58864911610537      0.37796153067890    -11.25329738875726
   C   7.26077809940833     -0.78583737157693    -11.22594902197838
*

