
! RIJCOSX CAM-B3LYP def2-TZVP def2/J D3BJ TightSCF CPCM(WATER) LARGEPRINT
%MAXCORE 150000
%SCF
 MAXITER 5000
 END
%TDDFT
 NROOTS 300
 MAXDIM 30
 END
%PAL
 NPROCS 5
 END


* xyz 0 1
   H   51.24229728041593     23.14895209761497     46.26434843262794
   N   50.78940339595552     22.37479929970192     45.80284669175749
   C   51.25413243388915     21.08868081862977     45.73156095964208
   H   52.18541600831470     20.79443495211035     46.18747784210713
   N   50.45138817204145     20.31062609580334     45.06736329996237
   C   49.40582077149570     21.12264572487857     44.68215691321566
   C   48.23632927665412     20.83630856569555     43.93761082307632
   O   47.87083561906853     19.76296406761319     43.46112422582276
   N   47.44890473704903     21.97088866595846     43.77243888499545
   H   46.59711250278708     21.83110627105737     43.24521925299157
   C   47.72893144505107     23.21590047678036     44.26489308977547
   N   46.85320183719530     24.19288606152734     43.98263471073638
   H   45.94029685573739     23.98332890031878     43.61476674301302
   H   46.97853748365677     25.07597561733982     44.44791413908463
   N   48.80627581980675     23.47954586972283     44.96330226846649
   C   49.60508225156943     22.41376329984877     45.13555977007443
   H   54.00693297508330     23.66112024567588     43.82704535697956
   N   53.15561166034697     23.47198959727005     43.32048873511769
   C   52.18588401594736     24.38039345165719     42.98844210980285
   H   52.27051924413614     25.42059935574663     43.25930417698287
   N   51.20070182832698     23.83998802111544     42.33345929234225
   C   51.53716670730046     22.50535878638294     42.23147808123247
   C   50.84085991322060     21.41255885622914     41.64627631818133
   O   49.75346109370892     21.40726308182828     41.08361112170057
   N   51.56285428497591     20.22324844084275     41.78556352977050
   H   51.08405627580170     19.39147276193460     41.45956547700390
   C   52.77513004600458     20.09084665870659     42.40164832339980
   N   53.29670651840552     18.85241129314720     42.46148138177450
   H   52.96551131301676     18.12657333997161     41.84889981085513
   H   54.23692120251788     18.76714393300196     42.80924698944006
   N   53.41399593087554     21.09709077902341     42.94382110972712
   C   52.75350423180048     22.26538487146243     42.84167040194006
   H   52.50912773873257     13.66428110413620     42.00928877922876
   N   52.63263415911644     14.19576652110989     42.85721752961732
   C   53.51823345390790     13.92692173835271     43.86609794695747
   H   54.18811515544104     13.08336713317808     43.81860026103614
   N   53.43947161700854     14.78600898734623     44.83978521521332
   C   52.44875032418474     15.66629409538847     44.45268457752374
   C   51.89868603296964     16.79940029916439     45.11251214893869
   O   52.20856071046359     17.27808338440351     46.19867346639024
   N   50.87333392816665     17.37346044792337     44.36201226427922
   H   50.44474569045622     18.19157071633734     44.76876665189762
   C   50.46032731974612     16.96286601780717     43.12723938038631
   N   49.52145379616091     17.70567170708977     42.52143938857542
   H   48.98280777487376     18.42021905401233     43.01329184481974
   H   49.12509224183626     17.32215654167831     41.67957193691992
   N   50.96791895363772     15.91686098887620     42.51551157313425
   C   51.93746687403372     15.30728765498580     43.22005697807418
   H   51.40553989388653     12.03113621035539     45.80094006261853
   N   50.64272083632400     12.43518377482409     45.27961621651909
   C   50.14069481053198     11.98592902669668     44.08796470919303
   H   50.53999297296797     11.11045575216275     43.60152288565860
   N   49.16637700454197     12.72665700546148     43.64704086729485
   C   49.02026311964584     13.71672139868417     44.59779102033919
   C   48.13804551043535     14.83183935912278     44.65058825399833
   O   47.27560820162334     15.16779347092697     43.84860868811809
   N   48.36721534787574     15.59576960314756     45.79703742039116
   H   47.80714315859954     16.43696501687455     45.89153779528726
   C   49.30732156030452     15.33832174792400     46.75805074701001
   N   49.33688075318252     16.20523596702005     47.79049993409843
   H   48.88400136407075     17.11560262739746     47.61118549862658
   H   50.17174694415937     16.20504940099308     48.35346442157510
   N   50.11596195958773     14.31207403751125     46.71096908086350
   C   49.93679513976160     13.54584330034116     45.61777625800393
   H   43.39047954039201     20.21468838738615     48.85564765614490
   N   44.25437262039775     20.04500136865595     49.34755146823754
   C   44.91653260016837     20.92857276166971     50.15758400591385
   H   44.52705570088970     21.91472023794124     50.35349408822767
   N   46.02358265210110     20.43713820853048     50.63113305085633
   C   46.09570176217549     19.16304390776369     50.10399858505577
   C   47.09546645298393     18.16039937730290     50.22768512987718
   O   48.15332273314039     18.19785375039712     50.84521563143488
   N   46.75181406456817     17.01768166139697     49.50103119210820
   H   47.45048168119272     16.28500120013489     49.49424366526212
   C   45.64462269655331     16.86976069627626     48.71623501697633
   N   45.50666129718416     15.69506344494497     48.07857115836040
   H   46.27700772738958     15.05136774120700     48.01527292625008
   H   44.78543395492289     15.62781929071136     47.38049048462803
   N   44.72808170896819     17.79789770787845     48.59236251834027
   C   44.99986218019976     18.90985577924807     49.29904172048445
   H   45.33516205803434     23.49833683192686     47.09493422706361
   N   45.58611747284174     22.53880294793680     46.91134495124216
   C   44.87612612497150     21.64175488295640     46.15656116181638
   H   43.94600023210754     21.91474750801202     45.68453059787747
   N   45.45260813421075     20.47800849002601     46.09232893540904
   C   46.60306111394872     20.61512489216100     46.84152783298023
   C   47.63187286761706     19.69027675236514     47.14474322392199
   O   47.73340120174858     18.51524491396787     46.79575839060963
   N   48.61477165918512     20.26273193954427     47.94606943824189
   H   49.37646177356726     19.64947081419565     48.20482310375584
   C   48.61862885782293     21.54898704156495     48.40941564457012
   N   49.64244908740489     21.90434480517134     49.20110068480001
   H   50.47106662778793     21.33688048316008     49.26213053808461
   H   49.72862544047780     22.87885470398537     49.43598278425712
   N   47.67007667280718     22.40746998493741     48.12976694009843
   C   46.69627382181425     21.89605313679947     47.35885918089184
*
