
! RIJCOSX CAM-B3LYP def2-TZVP def2/J D3BJ OPT FREQ CPCM(WATER) LARGEPRINT
%MAXCORE 30000
%GEOM
  Constraints
    {B 20 44 2.14 C} # G2N7-G5H21,2.14
    {B 20 43 3.05 C} # G2N7-G5N2,3.05
    {B 23 41 C} # G2O6-G5H1
    {B 23 40 C} # G2O6-G5N1
    {B 52 12 2.14 C} # G6N7-G1H21,2.14
    {B 52 11 3.05 C} # G6N7-G1N2,3.05
    {B 55 9 C} # G6O6-G1H1
    {B 55 8 C} # G6O6-G1N1
    END
 MAXITER 5000
 END
%SCF
 MAXITER 5000
 END
%PAL
 NPROCS 30
 END



* xyz 0 1
   H        7.56000        1.70000       21.24000
   N        7.08000        0.90000       22.38000
   C        7.40000       -0.38000       22.78000
   H        8.02000       -1.01000       22.17000
   N        7.08000       -0.67000       24.01000
   C        6.52000        0.51000       24.48000
   C        6.17000        0.82000       25.82000
   O        6.10000        0.12000       26.82000
   N        5.59000        2.09000       25.84000
   H        5.24000        2.39000       26.73000
   C        5.49000        2.98000       24.79000
   N        5.02000        4.19000       25.12000
   H        4.89000        4.46000       26.08000
   H        4.79000        4.81000       24.36000
   N        6.03000        2.72000       23.59000
   C        6.54000        1.47000       23.50000
   H        4.90000       -1.00000       19.01000
   N        4.35000       -0.64000       20.33000
   C        3.62000        0.46000       20.72000
   H        3.51000        1.28000       20.03000
   N        3.23000        0.48000       21.96000
   C        3.74000       -0.71000       22.46000
   C        3.70000       -1.30000       23.76000
   O        3.18000       -0.84000       24.77000
   N        4.40000       -2.50000       23.88000
   H        4.40000       -2.97000       24.77000
   C        4.91000       -3.13000       22.76000
   N        5.39000       -4.37000       22.85000
   H        5.50000       -4.74000       23.79000
   H        5.89000       -4.93000       22.17000
   N        4.89000       -2.66000       21.50000
   C        4.37000       -1.41000       21.47000
   H       -0.97000        5.77000       26.93000
   N       -0.34000        4.57000       27.50000
   C       -0.43000        4.14000       28.80000
   H       -0.89000        4.72000       29.58000
   N        0.08000        2.96000       29.05000
   C        0.59000        2.62000       27.80000
   C        1.21000        1.42000       27.38000
   O        1.49000        0.41000       28.02000
   N        1.66000        1.46000       26.06000
   H        2.26000        0.70000       25.78000
   C        1.40000        2.50000       25.20000
   N        1.82000        2.43000       23.93000
   H        2.12000        1.54000       23.57000
   H        1.81000        3.20000       23.28000
   N        0.70000        3.59000       25.54000
   C        0.39000        3.60000       26.86000
   H        1.64000        7.15000       29.95000
   N        2.45000        6.11000       29.28000
   C        2.95000        6.08000       28.01000
   H        2.79000        6.92000       27.34000
   N        3.47000        4.94000       27.66000
   C        3.39000        4.16000       28.81000
   C        3.80000        2.83000       29.10000
   O        4.56000        2.10000       28.47000
   N        3.47000        2.39000       30.37000
   H        3.76000        1.46000       30.65000
   C        2.84000        3.23000       31.26000
   N        2.55000        2.78000       32.49000
   H        2.57000        1.78000       32.64000
   H        2.03000        3.42000       33.07000
   N        2.43000        4.49000       31.06000
   C        2.77000        4.88000       29.80000
*
