
! RIJCOSX CAM-B3LYP def2-TZVP def2/J D3BJ TightSCF CPCM(WATER) LARGEPRINT
%MAXCORE 200000
%SCF
 MAXITER 5000
 END
%TDDFT
 NROOTS 300
 MAXDIM 10
 END
%PAL
 NPROCS 4
 END

* xyz 3 1
  H   12.35479524822489      0.94467234974093     -6.23295873677513
  N   12.27533441333646      1.72625260752559     -6.86630997516993
  C   13.11399463581122      2.80801813298928     -6.92472621239580
  H   13.97198942163305      2.89352605540844     -6.27732753426483
  N   12.74889308516317      3.67762854020953     -7.81927200868196
  C   11.60659600036621      3.13894841100790     -8.38192167664037
  C   10.74067581471683      3.60478197804319     -9.37709625500386
  O   10.78919519471234      4.65784789140468    -10.05114730325314
  N   9.67954285620967      2.75576809919474     -9.60094475642255
  H   9.09038640276606      3.09102225753703    -10.40534158798622
  C   9.41811386722741      1.59133328089202     -8.93691815339830
  N   8.29939669031047      0.95056957542795     -9.28461261090908
  H   7.58487627768604      1.42357889776485     -9.80640498793286
  H   8.04129342021827      0.14762165073278     -8.73479157955948
  N   10.23485345389433      1.13290911485038     -8.01349186091663
  C   11.29240119378395      1.92294363553882     -7.78192752650750
  H   12.26813496279776      4.44165742039371     -3.41503629897713
  N   11.58941095761598      4.51791371696236     -4.15774907566805
  C   10.64049063901401      3.58992366863004     -4.48910804385538
  H   10.54592625541778      2.65928424303555     -3.95285636207777
  N   9.90651277205537      3.96459707066652     -5.49400079395265
  C   10.39771164378421      5.20604247948382     -5.84905883232165
  C   10.02580803515509      6.11137430952628     -6.85599787321243
  O   9.11204838374319      6.00265351409968     -7.70249341537718
  N   10.79660143889891      7.25086707551150     -6.85073848737314
  H   10.47834943187680      7.95686021138223     -7.54409063003955
  C   11.80979144604994      7.53094438801497     -5.97592319513172
  N   12.40073951180470      8.72070648411989     -6.09903035720672
  H   12.25399382673422      9.28682048525126     -6.90872328442496
  H   13.21881811097481      8.88738530981712     -5.53735893053467
  N   12.17548453719030      6.68534674003661     -5.03754788709905
  C   11.45001109606478      5.56243723082370     -5.01520321509421
  H   12.92702873686012     12.93991472088413    -10.16881655803626
  N   12.37320011890290     12.21347340705918     -9.74053664225443
  C   12.52561649197579     11.72115675586742     -8.47295143427750
  H   13.28846620844063     12.09439360177828     -7.80867563446462
  N   11.67145744602875     10.78030821084743     -8.19680224649709
  C   10.92045974508459     10.63840164782446     -9.34816124308084
  C   9.85066805202616      9.78264320886280     -9.67025594155474
  O   9.27253763888507      8.95840908194418     -8.94155892518627
  N   9.43641034960904      9.92216578942569    -10.97839359388822
  H   8.71692226132559      9.21440472413551    -11.24153114403868
  C   9.92445102468595     10.83304772408862    -11.87546916287416
  N   9.36427387668270     10.85186156818443    -13.08675864535833
  H   8.78676597846539     10.09328455469435    -13.39558446436892
  H   9.80179146681478     11.43827322211972    -13.77734553256673
  N   10.88328126149028     11.67832778273332    -11.56485989982150
  C   11.35311959763825     11.52747170771843    -10.32097644429739
  H   15.81076183224910     10.57102775572138    -10.17219557789756
  N   15.06972960345230     10.08806201357438    -10.65731040342130
  C   14.53294308700881     10.43754779757204    -11.86785442765980
  H   14.87764051813375     11.30355302586057    -12.40983294721864
  N   13.59454677935799      9.62327521595478    -12.25210296828953
  C   13.50645562997238      8.68932717860009    -11.23618330233293
  C   12.68143705664066      7.56120741608625    -11.07056011768900
  O   11.79207291061779      7.13506046489269    -11.82123665454274
  N   12.94556983723577      6.87995341649687     -9.90183027458751
  H   12.32566314180018      6.06023347634476     -9.76377846010352
  C   13.90748817603754      7.19810653836481     -8.98550514721214
  N   14.03996795151875      6.36530742093263     -7.95391034491156
  H   13.50710381719094      5.51394555319013     -7.88250080453401
  H   14.72408021683116      6.58563376004071     -7.25097592769645
  N   14.66793521332956      8.26621798213103     -9.11601099734629
  C   14.42928518452200      8.96374522378572    -10.23737093690739
  H   8.74049178091916      9.45302173066854    -18.53034674266522
  N   8.79753371821152      8.70424995528593    -17.85625631293534
  C   8.01163205325563      7.58435109698284    -17.82480277865161
  H   7.23801979952637      7.41400098709253    -18.55617192915693
  N   8.30782063808128      6.79456278666487    -16.83362507817858
  C   9.34799356787868      7.43028307972696    -16.18165943851504
  C   10.06556562406308      7.09312904000384    -15.01867426877470
  O   9.96503554428134      6.07744899909315    -14.31612499743871
  N   10.97961907285616      8.06086693936720    -14.66602152570631
  H   11.43433223797313      7.87921808665467    -13.75210463256631
  C   11.22035579719300      9.22519116210648    -15.33693779048512
  N   12.16691295042334     10.01482996363951    -14.81681085338236
  H   12.49916927254578      9.85996471631752    -13.88713994121575
  H   12.27427847448629     10.93159847378966    -15.21778605362515
  N   10.57276155624171      9.54153928664934    -16.43773506116240
  C   9.65603521412985      8.62986378650399    -16.80328725505389
  H   4.90971672189575      8.44183430149013    -15.96200724521420
  N   5.52870063229355      8.44038081805129    -15.16517197261797
  C   6.65324105340053      9.20338826401903    -15.00951205947110
  H   6.97214278443368      9.90451725756235    -15.76397914614308
  N   7.25459812914771      8.97742743176420    -13.88080097197349
  C   6.49042215909689      8.01371559115056    -13.25400321157396
  C   6.61135707823357      7.37637842528449    -12.00802930575883
  O   7.49359664530101      7.51120968975223    -11.12927666210240
  N   5.58516651956944      6.48642376107525    -11.77859087629847
  H   5.66236516257197      6.03640600550973    -10.83900002343524
  C   4.54620802157678      6.20630422577405    -12.62264920868902
  N   3.64658495634805      5.32026140718180    -12.19701293034502
  H   3.80812069265329      4.77217568740405    -11.38043519200117
  H   2.93463219038633      5.03335562837964    -12.84757505811649
  N   4.43028403202412      6.79128606408699    -13.79487776999478
  C   5.40226234272877      7.67295601290878    -14.05271576878799
  H   4.07817865087204      1.19343920303138    -13.23274971438926
  N   4.86778480573143      1.64741306250063    -12.79831454947201
  C   5.38619067640247      1.36083346708079    -11.56264394332301
  H   4.96165267982572      0.59249450384250    -10.93643970465375
  N   6.41355583932166      2.09911197426178    -11.26545463156304
  C   6.57843206134079      2.92247217672835    -12.36545316309566
  C   7.50270078495828      3.93507658045521    -12.64629479499234
  O   8.40955117237779      4.38699256832072    -11.91097245182245
  N   7.34711062092101      4.47017245859042    -13.90003483942453
  H   8.09733938819320      5.12870727805634    -14.16915453494243
  C   6.39967834685525      4.10835667200305    -14.81874397611101
  N   6.44792749002573      4.73873761504041    -15.99026042336045
  H   7.18914996893038      5.37544244210897    -16.22815752167356
  H   5.78529704434644      4.46728052847718    -16.69681499369843
  N   5.48678406910374      3.19661113695828    -14.54707010822070
  C   5.62418520109991      2.63864496195834    -13.33782128343549
  H   3.11102757805256      1.17214739880836     -8.19363484908844
  N   3.54297135862907      2.03977230493792     -8.47493922755217
  C   3.06377556777491      2.91538952427740     -9.41158265921894
  H   2.14399469880357      2.72885556312301     -9.94274775094735
  N   3.83598114518100      3.94851180634939     -9.57242870790094
  C   4.88269581991934      3.74436857574130     -8.69375439200206
  C   6.05000646306726      4.47404014237081     -8.43594235770732
  O   6.44056606710337      5.54701513143204     -8.95090576845874
  N   6.86141467585592      3.88063921709499     -7.49827950813783
  H   7.73496215542340      4.45654999171991     -7.35149854992115
  C   6.61862861840864      2.69310290562898     -6.86626443628165
  N   7.52967356088544      2.27511509033991     -5.99012210657566
  H   8.42708629664499      2.72214118324613     -5.93002382937583
  H   7.41048251067048      1.35357887951190     -5.60447964329926
  N   5.52670326312749      1.99497747100751     -7.10152392928610
  C   4.71241742140576      2.54839174032150     -8.00605671303384
  Na  10.59317586272767      5.29928520935097    -12.31400090291077
  Na  8.61657445095273      5.65697839587937    -10.01611650582290
  Na  7.47908502527039      7.65023340375564     -8.60824921317157
*
