
! RIJCOSX CAM-B3LYP def2-TZVP def2/J D3BJ TightSCF CPCM(WATER) LARGEPRINT
%MAXCORE 150000
%SCF
 MAXITER 5000
 END
%TDDFT
 NROOTS 300
 MAXDIM 30
 END
%PAL
 NPROCS 5
 END

* xyz 0 1
  H   8.89939193203243      0.60675420648775    -24.65763711340257
  N   9.22260822677836      0.13993638585599    -23.82439035246740
  C   9.65979109948654     -1.15567460490526    -23.73419644329898
  H   9.69131883624182     -1.80172247430031    -24.59656822403631
  N   10.00587832013388     -1.48051565156113    -22.52393271412933
  C   9.78230750239071     -0.33972305907510    -21.77567850515901
  C   9.97829273308775     -0.08241555836112    -20.39111349547390
  O   10.39988973519892     -0.84479360108283    -19.52822063680284
  N   9.62525071045366      1.22878221958774    -20.06319580645539
  H   9.77314781164207      1.50082201389206    -19.10492507460037
  C   9.16168473402644      2.17401917729892    -20.94015551361405
  N   8.91801455677418      3.38850761599004    -20.44197391878366
  H   8.97175323748583      3.60989852429246    -19.45155613999960
  H   8.51120753930180      4.06413438569484    -21.06573217677794
  N   8.97074718717189      1.92949902644167    -22.21894160539612
  C   9.29632093693458      0.67610872156861    -22.57626541298531
  H   5.84764605177518     -0.93224223319561    -25.58125338036509
  N   5.94013687591126     -0.85874914217144    -24.57948075134935
  C   5.65912053633420      0.24207717894338    -23.81765644373463
  H   5.29540548880960      1.15814126671250    -24.25438015876408
  N   5.88406437886107      0.03726179653228    -22.55304297096754
  C   6.33825308331624     -1.26264641728147    -22.47726419870065
  C   6.75897050751121     -2.03646013732296    -21.36538369575012
  O   6.80532767652218     -1.72249497993975    -20.17972338166690
  N   7.15573776581244     -3.31246492225204    -21.76184745433635
  H   7.48715090072200     -3.91243306278748    -21.01776626415120
  C   7.17268682401885     -3.78315920634131    -23.04517248431597
  N   7.64329177144734     -5.02624753266906    -23.22921722568488
  H   7.78454335579626     -5.64899905173199    -22.45238712509025
  H   7.54685681759056     -5.43105810353978    -24.14500453649047
  N   6.77919617115828     -3.06930917587246    -24.07169132272251
  C   6.37960378279816     -1.83063158552225    -23.73618746782791
  H   5.36481362876689      4.86233956266135    -16.27494514931653
  N   5.62713061151702      3.89690692271953    -16.14967709148211
  C   5.91206330126336      3.27827720749849    -14.96063266989292
  H   5.86769636289232      3.80930835239433    -14.02365256428191
  N   6.23252371089246      2.02791575234239    -15.11518300596341
  C   6.15893803267992      1.81130359272148    -16.47811280203731
  C   6.42115405219881      0.64669373669934    -17.25024646260734
  O   6.76901663631011     -0.46368029460596    -16.86395558759382
  N   6.23058209826788      0.88944041095001    -18.61209424203964
  H   6.38878233224261      0.10177908286545    -19.22656333544211
  C   5.82384779195406      2.07444889599346    -19.16443845811373
  N   5.64231103415492      2.08514708282524    -20.48883657068600
  H   5.90041525728575      1.31112508395569    -21.07652101717763
  H   5.44497625357337      2.97146263776489    -20.92051695681871
  N   5.59441877419848      3.15408150365923    -18.45033296013159
  C   5.78091806069903      2.96871124654518    -17.13197393414318
  H   8.42287358622162      6.65550235474070    -15.61060212433870
  N   8.64167641370303      5.79020348402784    -16.08027408257657
  C   8.64278588290088      5.58007424876969    -17.43132873167297
  H   8.40358844433301      6.36534149190758    -18.13018603260725
  N   8.95956573571940      4.35627465960592    -17.73882280996789
  C   9.17623178752216      3.72731371412633    -16.52996508570231
  C   9.52988745596313      2.38690171361165    -16.22830244686115
  O   9.73009240076129      1.45579698922994    -17.00584923916677
  N   9.64483293262454      2.18908670434906    -14.85741440781400
  H   9.92048399740723      1.25959499299734    -14.56887218330318
  C   9.41821297015017      3.13182622933961    -13.89181427000264
  N   9.56323151859459      2.73777681286695    -12.62423379421429
  H   9.73076855546762      1.77733924566644    -12.36629886005862
  H   9.36002946289462      3.40870659265379    -11.90358659963212
  N   9.08405010629539      4.37373822018278    -14.17045421828717
  C   8.97967889965862      4.61218519587840    -15.48714614744948
  H   10.08292828216458     -2.29570975438766     -9.40510158258247
  N   10.21384651549975     -1.71814373021251    -10.22182459102069
  C   9.71516988351748     -0.45947918227313    -10.41139212949918
  H   9.11576542899858      0.03306169271146     -9.66277179179215
  N   10.05087811598140      0.03636430743804    -11.56655319169879
  C   10.80821263995769     -0.94700415031871    -12.16889998136624
  C   11.44694765304607     -0.98129713902929    -13.43505325967536
  O   11.47003146596950     -0.11883903025576    -14.30836057701268
  N   12.11393187577294     -2.18972349810922    -13.62979386575772
  H   12.59651274792938     -2.27999419282567    -14.51414218846168
  C   12.16443758030665     -3.22886720779517    -12.74166979843852
  N   12.88182152676112     -4.30221186135523    -13.10727106490278
  H   13.18511142761236     -4.42246788522971    -14.05903319816834
  H   12.82497657215489     -5.12075909601788    -12.52528398455000
  N   11.57263723124953     -3.19616496395055    -11.57262577465526
  C   10.91761587643482     -2.04588975471827    -11.33844718372797
*
